# Generated by ConicBenchmarkUtilities.jl
VER
2

OBJSENSE
MIN

VAR
166 1
F 166

INT
20
10
11
12
13
14
15
16
17
18
19
20
21
22
23
24
25
26
27
28
29

CON
465 437
L= 1
L= 1
L= 1
L= 1
L= 1
L= 1
L= 1
L= 1
L= 1
L= 1
L= 1
EXP 3
L+ 1
L+ 1
L= 1
L= 1
L= 1
L= 1
L+ 1
L+ 1
L+ 1
L+ 1
EXP 3
L+ 1
L+ 1
L= 1
L= 1
L= 1
L= 1
L+ 1
L+ 1
L+ 1
L+ 1
L= 1
L= 1
L= 1
L= 1
L= 1
L+ 1
L+ 1
L+ 1
L+ 1
EXP 3
L+ 1
L+ 1
L= 1
L= 1
L= 1
L= 1
L+ 1
L+ 1
L+ 1
L+ 1
L= 1
L= 1
L= 1
L= 1
L= 1
L= 1
L= 1
L= 1
L+ 1
L+ 1
L+ 1
L+ 1
L+ 1
L+ 1
EXP 3
L+ 1
L+ 1
L= 1
L= 1
L= 1
L= 1
L+ 1
L+ 1
L+ 1
L+ 1
EXP 3
L+ 1
L+ 1
L= 1
L= 1
L= 1
L= 1
L+ 1
L+ 1
L+ 1
L+ 1
EXP 3
L+ 1
L+ 1
L= 1
L= 1
L= 1
L= 1
L+ 1
L+ 1
L+ 1
L+ 1
L= 1
L= 1
L= 1
L= 1
L= 1
L+ 1
L+ 1
L+ 1
L+ 1
L= 1
L= 1
L= 1
L= 1
L= 1
L+ 1
L+ 1
L+ 1
L+ 1
EXP 3
L+ 1
L+ 1
L= 1
L= 1
L= 1
L= 1
L+ 1
L+ 1
L+ 1
L+ 1
L= 1
L= 1
L= 1
L= 1
L= 1
L= 1
L= 1
L= 1
L+ 1
L+ 1
L+ 1
L+ 1
L+ 1
L+ 1
EXP 3
L+ 1
L+ 1
L= 1
L= 1
L= 1
L= 1
L+ 1
L+ 1
L+ 1
L+ 1
EXP 3
L+ 1
L+ 1
L= 1
L= 1
L= 1
L= 1
L+ 1
L+ 1
L+ 1
L+ 1
EXP 3
L+ 1
L+ 1
EXP 3
L+ 1
L+ 1
L= 1
L= 1
L= 1
L= 1
L= 1
L= 1
L+ 1
L+ 1
L+ 1
L+ 1
L+ 1
L+ 1
L= 1
L= 1
L= 1
L= 1
L= 1
L+ 1
L+ 1
L+ 1
L+ 1
L= 1
L= 1
L= 1
L= 1
L= 1
L+ 1
L+ 1
L+ 1
L+ 1
EXP 3
L+ 1
L+ 1
L= 1
L= 1
L= 1
L= 1
L+ 1
L+ 1
L+ 1
L+ 1
EXP 3
L+ 1
L+ 1
L= 1
L= 1
L= 1
L= 1
L+ 1
L+ 1
L+ 1
L+ 1
EXP 3
L+ 1
L+ 1
L= 1
L= 1
L= 1
L= 1
L+ 1
L+ 1
L+ 1
L+ 1
L= 1
L+ 1
L+ 1
L+ 1
L+ 1
L+ 1
L+ 1
L+ 1
L+ 1
L+ 1
L+ 1
L+ 1
L+ 1
L+ 1
L+ 1
L+ 1
L+ 1
L+ 1
L+ 1
L+ 1
L+ 1
L+ 1
L+ 1
L+ 1
L+ 1
L+ 1
L+ 1
L+ 1
L+ 1
L+ 1
L+ 1
L+ 1
L+ 1
L+ 1
L+ 1
L+ 1
L+ 1
L+ 1
L+ 1
L+ 1
L+ 1
L+ 1
L+ 1
L+ 1
L+ 1
L+ 1
L+ 1
L+ 1
L+ 1
L+ 1
L+ 1
L+ 1
L+ 1
L+ 1
L+ 1
L+ 1
L+ 1
L+ 1
L+ 1
L+ 1
L+ 1
L+ 1
L+ 1
L+ 1
L+ 1
L+ 1
L+ 1
L+ 1
L+ 1
L+ 1
L+ 1
L+ 1
L+ 1
L+ 1
L+ 1
L+ 1
L+ 1
L+ 1
L+ 1
L+ 1
L+ 1
L+ 1
L+ 1
L+ 1
L+ 1
L+ 1
L+ 1
L+ 1
L+ 1
L+ 1
L+ 1
L+ 1
L+ 1
L+ 1
L+ 1
L+ 1
L+ 1
L+ 1
L+ 1
L+ 1
L+ 1
L+ 1
L+ 1
L+ 1
L+ 1
L+ 1
L+ 1
L+ 1
L+ 1
L+ 1
L+ 1
L+ 1
L+ 1
L+ 1
L+ 1
L+ 1
L+ 1
L+ 1
L+ 1
L+ 1
L+ 1
L+ 1
L+ 1
L+ 1
L+ 1
L+ 1
L+ 1
L+ 1
L+ 1
L+ 1
L+ 1
L+ 1
L+ 1
L+ 1
L+ 1
L+ 1
L+ 1
L+ 1
L+ 1
L+ 1
L+ 1
L+ 1
L+ 1
L+ 1
L+ 1
L+ 1
L+ 1
L+ 1
L+ 1
L+ 1
L+ 1
L+ 1
L+ 1
L+ 1
L+ 1
L+ 1
L+ 1
L+ 1
L+ 1
L+ 1
L+ 1
L+ 1
L+ 1
L+ 1
L+ 1
L+ 1
L+ 1
L+ 1
L+ 1
L+ 1
L+ 1
L+ 1
L+ 1
L+ 1
L+ 1
L+ 1
L+ 1
L+ 1
L+ 1
L+ 1
L+ 1
L+ 1
L+ 1
L+ 1
L+ 1
L+ 1
L+ 1
L+ 1
L+ 1
L+ 1
L+ 1
L+ 1
L+ 1
L+ 1
L+ 1
L+ 1
L+ 1
L+ 1
L+ 1
L+ 1
L+ 1
L+ 1
L+ 1

OBJACOORD
1
30 -1.0

ACOORD
779
0 0 5.0
3 0 -1.0
297 0 1.0
0 1 200.0
150 1 1.0
330 1 1.0
0 2 250.0
165 2 1.0
331 2 1.0
0 3 200.0
178 3 1.0
332 3 1.0
0 4 700.0
198 4 1.0
333 4 1.0
0 5 400.0
209 5 1.0
334 5 1.0
0 6 500.0
218 6 1.0
335 6 1.0
0 7 400.0
231 7 1.0
336 7 1.0
0 8 600.0
244 8 1.0
337 8 1.0
0 9 700.0
257 9 1.0
338 9 1.0
0 10 -5.0
11 10 1.0
12 10 1.0
14 10 1.0
20 10 10.0
21 10 -10.0
22 10 2.39789527279837
23 10 -2.39789527279837
262 10 1.0
272 10 1.0
273 10 1.0
274 10 1.0
425 10 1.0
426 10 -1.0
0 11 -8.0
24 11 1.0
25 11 1.0
27 11 1.0
33 11 10.0
34 11 -10.0
35 11 2.87747432735804
36 11 -2.87747432735804
262 11 1.0
272 11 1.0
273 11 1.0
274 11 1.0
427 11 1.0
428 11 -1.0
0 12 -6.0
42 12 2.87747432735804
43 12 -2.87747432735804
44 12 2.15810574551853
45 12 -2.15810574551853
263 12 -1.0
272 12 -1.0
275 12 1.0
276 12 1.0
429 12 1.0
430 12 -1.0
0 13 -10.0
46 13 1.0
47 13 1.0
49 13 1.0
55 13 2.87747432735804
56 13 -2.87747432735804
57 13 2.03277599268042
58 13 -2.03277599268042
266 13 -1.0
273 13 -1.0
277 13 1.0
431 13 1.0
432 13 -1.0
0 14 -6.0
67 14 2.87747432735804
68 14 -2.87747432735804
69 14 7.0
70 14 -7.0
71 14 3.5
72 14 -3.5
268 14 -1.0
274 14 -1.0
278 14 1.0
279 14 1.0
280 14 1.0
433 14 1.0
434 14 -1.0
0 15 -7.0
73 15 1.0
74 15 1.0
76 15 1.0
82 15 2.15810574551853
83 15 -2.15810574551853
84 15 1.43746550029693
85 15 -1.43746550029693
263 15 1.0
264 15 -1.0
275 15 -1.0
281 15 1.0
435 15 1.0
436 15 -1.0
0 16 -4.0
86 16 1.0
87 16 1.0
89 16 1.0
95 16 2.15810574551853
96 16 -2.15810574551853
97 16 1.03497516021379
98 16 -1.03497516021379
263 16 1.0
265 16 -1.0
276 16 -1.0
282 16 1.0
437 16 1.0
438 16 -1.0
0 17 -5.0
99 17 1.0
100 17 1.0
102 17 1.0
108 17 2.03277599268042
109 17 -2.03277599268042
110 17 1.10947836929589
111 17 -1.10947836929589
266 17 1.0
267 17 -1.0
277 17 -1.0
283 17 1.0
284 17 1.0
439 17 1.0
440 17 -1.0
0 18 -2.0
117 18 3.5
118 18 -3.5
119 18 3.15
120 18 -3.15
268 18 1.0
269 18 -1.0
278 18 -1.0
441 18 1.0
442 18 -1.0
0 19 -4.0
126 19 3.5
127 19 -3.5
128 19 2.1
129 19 -2.1
268 19 1.0
270 19 -1.0
279 19 -1.0
285 19 1.0
286 19 1.0
443 19 1.0
444 19 -1.0
0 20 -3.0
130 20 1.0
131 20 1.0
133 20 1.0
139 20 3.5
140 20 -3.5
141 20 1.6544851364539
142 20 -1.6544851364539
268 20 1.0
271 20 -1.0
280 20 -1.0
287 20 1.0
288 20 1.0
289 20 1.0
445 20 1.0
446 20 -1.0
0 21 -7.0
151 21 1.43746550029693
152 21 -1.43746550029693
153 21 5.0
154 21 -5.0
155 21 5.0
156 21 -5.0
264 21 1.0
281 21 -1.0
447 21 1.0
448 21 -1.0
0 22 -3.0
157 22 1.0
158 22 1.0
160 22 1.0
166 22 1.03497516021379
167 22 -1.03497516021379
168 22 0.710483612536911
169 22 -0.710483612536911
265 22 1.0
282 22 -1.0
449 22 1.0
450 22 -1.0
0 23 -2.0
170 23 1.0
171 23 1.0
173 23 1.0
179 23 1.10947836929589
180 23 -1.10947836929589
181 23 0.522508489006913
182 23 -0.522508489006913
267 23 1.0
283 23 -1.0
451 23 1.0
452 23 -1.0
0 24 -4.0
183 24 1.0
184 24 1.0
186 24 1.0
188 24 1.0
189 24 1.0
191 24 1.0
199 24 1.10947836929589
200 24 -1.10947836929589
201 24 8.15
202 24 -8.15
203 24 1.43894002153683
204 24 -1.43894002153683
267 24 1.0
269 24 1.0
284 24 -1.0
453 24 1.0
454 24 -1.0
0 25 -2.0
210 25 2.1
211 25 -2.1
212 25 2.1
213 25 -2.1
270 25 1.0
285 25 -1.0
455 25 1.0
456 25 -1.0
0 26 -3.0
219 26 2.1
220 26 -2.1
221 26 2.1
222 26 -2.1
270 26 1.0
286 26 -1.0
457 26 1.0
458 26 -1.0
0 27 -5.0
223 27 1.0
224 27 1.0
226 27 1.0
232 27 1.6544851364539
233 27 -1.6544851364539
234 27 0.732188035236726
235 27 -0.732188035236726
271 27 1.0
287 27 -1.0
459 27 1.0
460 27 -1.0
0 28 -2.0
236 28 1.0
237 28 1.0
239 28 1.0
245 28 1.6544851364539
246 28 -1.6544851364539
247 28 0.781000570919175
248 28 -0.781000570919175
271 28 1.0
288 28 -1.0
461 28 1.0
462 28 -1.0
0 29 -8.0
249 29 1.0
250 29 1.0
252 29 1.0
258 29 1.6544851364539
259 29 -1.6544851364539
260 29 0.829813106601623
261 29 -0.829813106601623
271 29 1.0
289 29 -1.0
463 29 1.0
464 29 -1.0
0 30 -1.0
1 31 1.0
290 31 1.0
291 31 -1.0
1 32 -1.0
18 32 1.0
292 32 1.0
1 33 -1.0
31 33 1.0
293 33 1.0
2 34 -1.0
19 34 1.0
294 34 1.0
2 35 -1.0
32 35 1.0
295 35 1.0
2 36 1.0
3 36 1.0
296 36 1.0
3 37 -1.0
4 37 1.0
298 37 1.0
4 38 -1.0
40 38 1.0
299 38 1.0
4 39 -1.0
53 39 1.0
300 39 1.0
4 40 -1.0
64 40 1.0
301 40 1.0
5 41 1.0
41 41 1.0
304 41 1.0
5 42 -1.0
80 42 1.0
307 42 1.0
5 43 -1.0
93 43 1.0
308 43 1.0
6 44 1.0
66 44 1.0
306 44 1.0
6 45 -1.0
115 45 1.0
309 45 1.0
6 46 -1.0
124 46 1.0
310 46 1.0
6 47 -1.0
137 47 1.0
311 47 1.0
7 48 1.0
107 48 1.0
314 48 1.0
7 49 -1.0
177 49 1.0
318 49 1.0
7 50 -1.0
196 50 1.0
319 50 1.0
8 51 -1.0
116 51 1.0
315 51 1.0
8 52 -1.0
322 52 1.0
323 52 -1.0
8 53 1.0
197 53 1.0
324 53 1.0
9 54 1.0
125 54 1.0
316 54 1.0
9 55 -1.0
208 55 1.0
325 55 1.0
9 56 -1.0
217 56 1.0
326 56 1.0
10 57 1.0
138 57 1.0
317 57 1.0
10 58 -1.0
230 58 1.0
327 58 1.0
10 59 -1.0
243 59 1.0
328 59 1.0
10 60 -1.0
256 60 1.0
329 60 1.0
13 61 -1.0
15 61 -1.0
11 62 1.0
14 62 1.0
18 62 -1.0
20 62 -1.0
339 62 1.0
15 63 -1.0
19 63 -1.0
22 63 -1.0
343 63 1.0
16 64 1.0
18 64 -1.0
21 64 -1.0
340 64 1.0
17 65 1.0
19 65 -1.0
23 65 -1.0
344 65 1.0
26 66 -1.0
28 66 -1.2
24 67 1.0
27 67 1.0
31 67 -1.0
33 67 -1.0
341 67 1.0
28 68 -1.0
32 68 -1.0
35 68 -1.0
345 68 1.0
29 69 1.0
31 69 -1.0
34 69 -1.0
342 69 1.0
30 70 1.0
32 70 -1.0
36 70 -1.0
346 70 1.0
37 71 -0.75
40 71 -1.0
42 71 -1.0
347 71 1.0
37 72 1.0
41 72 -1.0
44 72 -1.0
355 72 1.0
38 73 1.0
40 73 -1.0
43 73 -1.0
348 73 1.0
39 74 1.0
41 74 -1.0
45 74 -1.0
356 74 1.0
48 75 -1.0
50 75 -1.5
46 76 1.0
49 76 1.0
53 76 -1.0
55 76 -1.0
349 76 1.0
50 77 -1.0
54 77 -1.0
57 77 -1.0
357 77 1.0
51 78 1.0
53 78 -1.0
56 78 -1.0
350 78 1.0
52 79 1.0
54 79 -1.0
58 79 -1.0
359 79 1.0
54 80 1.0
106 80 1.0
305 80 1.0
59 81 -1.0
64 81 -1.0
67 81 -1.0
351 81 1.0
59 82 1.0
60 82 1.0
66 82 -1.0
71 82 -1.0
361 82 1.0
60 83 -0.5
65 83 -1.0
69 83 -1.0
353 83 1.0
61 84 1.0
64 84 -1.0
68 84 -1.0
352 84 1.0
62 85 1.0
65 85 -1.0
70 85 -1.0
354 85 1.0
63 86 1.0
66 86 -1.0
72 86 -1.0
362 86 1.0
65 87 1.0
302 87 1.0
303 87 -1.0
75 88 -1.0
77 88 -1.25
73 89 1.0
76 89 1.0
80 89 -1.0
82 89 -1.0
363 89 1.0
77 90 -1.0
81 90 -1.0
84 90 -1.0
373 90 1.0
78 91 1.0
80 91 -1.0
83 91 -1.0
364 91 1.0
79 92 1.0
81 92 -1.0
85 92 -1.0
375 92 1.0
81 93 1.0
148 93 1.0
312 93 1.0
88 94 -1.0
90 94 -0.9
86 95 1.0
89 95 1.0
93 95 -1.0
95 95 -1.0
365 95 1.0
90 96 -1.0
94 96 -1.0
97 96 -1.0
377 96 1.0
91 97 1.0
93 97 -1.0
96 97 -1.0
366 97 1.0
92 98 1.0
94 98 -1.0
98 98 -1.0
379 98 1.0
94 99 1.0
164 99 1.0
313 99 1.0
101 100 -1.0
103 100 -1.0
99 101 1.0
102 101 1.0
106 101 -1.0
108 101 -1.0
358 101 1.0
103 102 -1.0
107 102 -1.0
110 102 -1.0
381 102 1.0
104 103 1.0
106 103 -1.0
109 103 -1.0
360 103 1.0
105 104 1.0
107 104 -1.0
111 104 -1.0
382 104 1.0
112 105 -0.9
115 105 -1.0
117 105 -1.0
367 105 1.0
112 106 1.0
116 106 -1.0
119 106 -1.0
383 106 1.0
113 107 1.0
115 107 -1.0
118 107 -1.0
368 107 1.0
114 108 1.0
116 108 -1.0
120 108 -1.0
384 108 1.0
121 109 -0.6
124 109 -1.0
126 109 -1.0
369 109 1.0
121 110 1.0
125 110 -1.0
128 110 -1.0
385 110 1.0
122 111 1.0
124 111 -1.0
127 111 -1.0
370 111 1.0
123 112 1.0
125 112 -1.0
129 112 -1.0
386 112 1.0
132 113 -1.0
134 113 -1.1
130 114 1.0
133 114 1.0
137 114 -1.0
139 114 -1.0
371 114 1.0
134 115 -1.0
138 115 -1.0
141 115 -1.0
387 115 1.0
135 116 1.0
137 116 -1.0
140 116 -1.0
372 116 1.0
136 117 1.0
138 117 -1.0
142 117 -1.0
388 117 1.0
143 118 -0.9
148 118 -1.0
151 118 -1.0
374 118 1.0
143 119 1.0
144 119 1.0
150 119 -1.0
155 119 -1.0
407 119 1.0
144 120 -1.0
149 120 -1.0
153 120 -1.0
393 120 1.0
145 121 1.0
148 121 -1.0
152 121 -1.0
376 121 1.0
146 122 1.0
149 122 -1.0
154 122 -1.0
394 122 1.0
147 123 1.0
150 123 -1.0
156 123 -1.0
408 123 1.0
149 124 1.0
320 124 1.0
321 124 -1.0
159 125 -1.0
161 125 -1.0
157 126 1.0
160 126 1.0
164 126 -1.0
166 126 -1.0
378 126 1.0
161 127 -1.0
165 127 -1.0
168 127 -1.0
409 127 1.0
162 128 1.0
164 128 -1.0
167 128 -1.0
380 128 1.0
163 129 1.0
165 129 -1.0
169 129 -1.0
410 129 1.0
172 130 -1.0
174 130 -0.7
170 131 1.0
173 131 1.0
177 131 -1.0
179 131 -1.0
389 131 1.0
174 132 -1.0
178 132 -1.0
181 132 -1.0
411 132 1.0
175 133 1.0
177 133 -1.0
180 133 -1.0
390 133 1.0
176 134 1.0
178 134 -1.0
182 134 -1.0
412 134 1.0
185 135 -1.0
187 135 -0.65
183 136 1.0
186 136 1.0
196 136 -1.0
199 136 -1.0
391 136 1.0
187 137 -1.0
192 137 -1.0
198 137 -1.0
203 137 -1.0
413 137 1.0
190 138 -1.0
192 138 -0.65
188 139 1.0
191 139 1.0
197 139 -1.0
201 139 -1.0
395 139 1.0
193 140 1.0
196 140 -1.0
200 140 -1.0
392 140 1.0
194 141 1.0
197 141 -1.0
202 141 -1.0
396 141 1.0
195 142 1.0
198 142 -1.0
204 142 -1.0
414 142 1.0
205 143 -1.0
208 143 -1.0
210 143 -1.0
397 143 1.0
205 144 1.0
209 144 -1.0
212 144 -1.0
415 144 1.0
206 145 1.0
208 145 -1.0
211 145 -1.0
398 145 1.0
207 146 1.0
209 146 -1.0
213 146 -1.0
416 146 1.0
214 147 -1.0
217 147 -1.0
219 147 -1.0
399 147 1.0
214 148 1.0
218 148 -1.0
221 148 -1.0
417 148 1.0
215 149 1.0
217 149 -1.0
220 149 -1.0
400 149 1.0
216 150 1.0
218 150 -1.0
222 150 -1.0
418 150 1.0
225 151 -1.0
227 151 -0.75
223 152 1.0
226 152 1.0
230 152 -1.0
232 152 -1.0
401 152 1.0
227 153 -1.0
231 153 -1.0
234 153 -1.0
419 153 1.0
228 154 1.0
230 154 -1.0
233 154 -1.0
402 154 1.0
229 155 1.0
231 155 -1.0
235 155 -1.0
420 155 1.0
238 156 -1.0
240 156 -0.8
236 157 1.0
239 157 1.0
243 157 -1.0
245 157 -1.0
403 157 1.0
240 158 -1.0
244 158 -1.0
247 158 -1.0
421 158 1.0
241 159 1.0
243 159 -1.0
246 159 -1.0
404 159 1.0
242 160 1.0
244 160 -1.0
248 160 -1.0
422 160 1.0
251 161 -1.0
253 161 -0.85
249 162 1.0
252 162 1.0
256 162 -1.0
258 162 -1.0
405 162 1.0
253 163 -1.0
257 163 -1.0
260 163 -1.0
423 163 1.0
254 164 1.0
256 164 -1.0
259 164 -1.0
406 164 1.0
255 165 1.0
257 165 -1.0
261 165 -1.0
424 165 1.0

BCOORD
68
21 10.0
23 2.39789527279837
34 10.0
36 2.87747432735804
43 2.87747432735804
45 2.15810574551853
56 2.87747432735804
58 2.03277599268042
68 2.87747432735804
70 7.0
72 3.5
83 2.15810574551853
85 1.43746550029693
96 2.15810574551853
98 1.03497516021379
109 2.03277599268042
111 1.10947836929589
118 3.5
120 3.15
127 3.5
129 2.1
140 3.5
142 1.6544851364539
152 1.43746550029693
154 5.0
156 5.0
167 1.03497516021379
169 0.710483612536911
180 1.10947836929589
182 0.522508489006913
200 1.10947836929589
202 8.15
204 1.43894002153683
211 2.1
213 2.1
220 2.1
222 2.1
233 1.6544851364539
235 0.732188035236726
246 1.6544851364539
248 0.781000570919175
259 1.6544851364539
261 0.829813106601623
262 -1.0
291 10.0
303 7.0
321 5.0
323 5.0
426 1.0
428 1.0
430 1.0
432 1.0
434 1.0
436 1.0
438 1.0
440 1.0
442 1.0
444 1.0
446 1.0
448 1.0
450 1.0
452 1.0
454 1.0
456 1.0
458 1.0
460 1.0
462 1.0
464 1.0
